! aug-cc-pVDZ LARGEPRINT DEFGRID3 TIGHTSCF

%PAL NPROCS 8 END

%maxcore 2000

%method
method dft
functional hyb_gga_xc_wb97x_d
end

%geom
maxiter 400
end


* xyz -1 2
  C     -0.781619    2.941696   -0.355449
  C     -0.488224    1.600086    0.048194
  C      0.390157    3.821511   -0.737226
  H      0.415675    4.707737   -0.083181
  H      0.257049    4.185181   -1.768394
  H      1.342258    3.284935   -0.659930
  O     -1.957549    3.424569   -0.408821
  O      0.666084    1.085673    0.121898
  O     -1.576054    0.826243    0.380493
  H     -1.218492   -0.037605    0.635046
  O     -4.306914    2.192235    0.312235
  H     -3.505500    2.694460    0.039322
  H     -3.907050    1.342788    0.517072
  O      0.373461   -1.343542    1.125590
  H      0.638374   -0.472270    0.721358
  H      0.536794   -1.221103    2.063221
*
