! aug-cc-pVDZ OPT AnFREQ LARGEPRINT DEFGRID3

%PAL NPROCS 8 END

%maxcore 2000

%method
method dft
functional hyb_gga_xc_wb97x_d 
end

%geom
maxiter 400
end

* xyz -1 2
  C          -0.78282293570041      2.94007991704657     -0.34496398529647
  C          -0.48760481882411      1.58534252320233      0.01877385050693
  C           0.39258546591483      3.81615215107429     -0.72394561531578
  H           0.42933903883376      4.69572978663638     -0.06055034531776
  H           0.25963940209951      4.19353677217758     -1.75116680492037
  H           1.34041861769509      3.26980632439115     -0.65738594990305
  O          -1.95638470367882      3.43987383860160     -0.36767310453975
  O           0.63519189729035      1.03525038906372      0.06185436314130
  O          -1.59102684715273      0.80802103061660      0.36214571002705
  H          -1.18469684128041     -0.04093547933142      0.56744635090271
  O          -4.28915495607679      2.16194516503822      0.26843049263754
  H          -3.49815556673869      2.69736500561532      0.02256684167087
  H          -3.85459752032470      1.32704414719436      0.46427268803177
*
