! aug-cc-pVDZ OPT AnFREQ LARGEPRINT DEFGRID3

%PAL NPROCS 8 END

%maxcore 2000

%method
method dft
functional hyb_gga_xc_wb97x_d 
end

%geom
maxiter 400
end

* xyz -1 2
C  -0.63207512014485012219 -0.21537725479102995396 -0.00004065146225999996
C  0.72496348777778996109 0.27560080306301992792 -0.00000607076031000000
C  -1.78245920989619999197 0.75658567797167941560 -0.00004530641610999998
H  -2.42125157294079995651 0.59944099550039942059 0.88650112874682973629
H  -2.42134373022020987776 0.59939598319848941266 -0.88651755243095975434
H  -1.41570096163569947301 1.79081694948471881190 -0.00007414745881999997
O  -0.83757257442169019690 -1.48863386531630870202 0.00008165395125999994
O  1.12231630981189023366 1.45158362810681906829 -0.00000867597358999998
O  1.63504476387778008295 -0.75742604822578885049 0.00001944249409999997
H  1.03646460779199967028 -1.53464986899200850345 -0.00004582069014000000
O  3.83252612071124243442 1.31419576896728029780 0.00344837767427908469
H  3.81787390069819299043 0.35351304836500246909 0.00396718956121811222
H  2.86941412432128606369 1.52925482882860386269 0.00185131312511608030
*
