! aug-cc-pVDZ OPT AnFREQ LARGEPRINT DEFGRID3

%PAL NPROCS 8 END

%maxcore 2000

%method
method dft
functional hyb_gga_xc_wb97x_d 
end

%geom
maxiter 400
end

* xyz -1 2
C          -0.63594250436824      2.89381561880591     -0.23649758942914
C          -0.15839647921204      1.52504827598458     -0.00954872767277
C           0.30860166056296      3.93100232559302     -0.77240028978378
H           0.44625952234126      4.75219355634493     -0.04720089189813
H          -0.10838694150190      4.38125879905715     -1.68572836659537
H           1.27861183375676      3.49139044973069     -0.99646700602198
O          -1.86302860966713      3.21513950291380      0.03006685172135
O           1.00153606952302      1.10519317653542     -0.15907512354375
O          -1.09831090759083      0.62724973963403      0.46143442280912
H          -1.92518814034468      1.08773379848574      0.45813907263814
O          -4.36292997249925      2.41636486095020      0.19951964023629
H          -4.88161188406246      3.03370620700397     -0.33054709254880
H          -3.39277484323746      2.71397983096053      0.12530757548886
*
