! aug-cc-pVDZ OPT AnFREQ LARGEPRINT DEFGRID3

%PAL NPROCS 8 END

%maxcore 4000

%method
method dft
functional hyb_gga_xc_wb97x_d 
end

%geom
maxiter 400
end

* xyz -1 2
  C          -0.79960955342599      2.94888165679467     -0.34783383107474
  C          -0.51258720962751      1.59325927889413      0.02237152034289
  C           0.39142447305070      3.81397420619315     -0.72445106558520
  H           0.44687677754889      4.68648116735273     -0.05152996622739
  H           0.25797131227086      4.20597354435825     -1.74683735375434
  H           1.33297609462676      3.25383695187470     -0.66935022610845
  O          -1.96820562941159      3.44658471755518     -0.37399113899984
  O           0.60936775202068      1.03058879789587      0.07346553173131
  O          -1.62398215368091      0.82825051707534      0.36176680335843
  H          -1.22331396407190     -0.02212746439401      0.57207666021733
  O          -4.25271734199173      2.13475673309861      0.32169376294635
  H          -3.51710817386606      2.72733713343558      0.04911480518130
  H          -3.77933725791668      1.31380716942245      0.48254861353162
  O           0.35921842036375     -1.32533900861379      1.19298343703041
  H           0.56279812181418     -0.48219503558848      0.69002634735898
  H           0.59467896026834     -1.12147634526205      2.09937261296002
*
