! aug-cc-pVDZ OPT AnFREQ LARGEPRINT DEFGRID3

%PAL NPROCS 8 END

%maxcore 2000

%method
method dft
functional hyb_gga_xc_wb97x_d 
end

%geom
maxiter 400
end

* xyz -1 2
C          -0.58483280883941      3.02337408534146     -0.38568508489691
C          -0.34215678751186      1.64128286311903     -0.01872797844777
C           0.57799835816400      3.90369830458254     -0.74874145818624
H           0.64197509065954      4.77199075462118     -0.06838474441137
H           0.45875644993922      4.30784709958359     -1.76968773199364
H           1.51580295953628      3.33783524684618     -0.69347138086810
O          -1.79208994127299      3.48044765040288     -0.40272264076054
O           0.77197841794846      1.09590832467622      0.02568738511157
O          -1.44353209857055      0.91659114675920      0.30182919833925
H          -2.24882467974399      1.46105365119303      0.23186205767997
O          -4.09849015798611      1.88610942015024      0.16818820552936
H          -4.89507772881600      1.39852585769744      0.37374275203419
H          -4.33949261335562      2.76410820198125     -0.17240482979151
O          -4.09071739247188      4.57298511964907     -0.50080911445720
H          -3.10934699931632      4.39095707096457     -0.52572260529998
H          -4.20933857156276      5.49960032353210     -0.29662847018108
*
