! aug-cc-pVDZ LARGEPRINT DEFGRID3 TIGHTSCF

%PAL NPROCS 8 END

%maxcore 2000

%method
method dft
functional hyb_gga_xc_wb97x_d 
end

%geom
maxiter 400
end

* xyz -1 2
  C          -0.63207512014485     -0.21537725479103     -0.00004065146226
  C           0.72496348777779      0.27560080306302     -0.00000607076031
  C          -1.78245920989620      0.75658567797168     -0.00004530641611
  H          -2.42125157294080      0.59944099550040      0.88650112874683
  H          -2.42134373022021      0.59939598319849     -0.88651755243096
  H          -1.41570096163570      1.79081694948472     -0.00007414745882
  O          -0.83757257442169     -1.48863386531631      0.00008165395126
  O           1.12231630981189      1.45158362810682     -0.00000867597359
  O           1.63504476387778     -0.75742604822579      0.00001944249410
  H           1.03646460779200     -1.53464986899201     -0.00004582069014
*
