! aug-cc-pVDZ OPT AnFREQ LARGEPRINT DEFGRID3

%PAL NPROCS 8 END

%maxcore 2000

%method
method dft
functional hyb_gga_xc_wb97x_d 
end

%geom
maxiter 400
end

* xyz -1 2
C  -0.632156  -0.215289   0.000122
C   0.725161   0.275535   0.000018
C  -1.782632   0.756729  -0.000023
H  -2.421224   0.599248   0.886752
H  -2.421317   0.599089  -0.886792
H  -1.416256   1.791443  -0.000103
O  -0.838049  -1.488612  -0.000031
O   1.122762   1.451465  -0.000019
O   1.635251  -0.757455  -0.000014
H   1.036846  -1.534816  -0.000046
*
