! aug-cc-pVDZ TightSCF Engrad ANFREQ

%PAL NPROCS 8 END

%maxcore 8000

%method
method dft
functional hyb_gga_xc_wb97x_d
end

%TDDFT
NROOTS 10
DONTO TRUE
IROOT 1
END

* xyz 0 1
  C     -0.652599   -0.222620    0.000026
  C      0.704994    0.248880    0.000429
  C     -1.793407    0.759899   -0.000192
  H     -2.431432    0.606736    0.886085
  H     -2.431051    0.606780   -0.886751
  H     -1.418596    1.790709   -0.000080
  O     -0.862076   -1.491330    0.000100
  O      1.118778    1.427594    0.000705
  O      1.607966   -0.785033    0.000435
  H      1.006664   -1.561270   -0.000079
  O      3.879411    1.363126    0.003274
  H      3.889754    0.401977    0.002990
  H      2.909794    1.528853    0.002189
* 
