! aug-cc-pVDZ LARGEPRINT DEFGRID3 TIGHTSCF

%PAL NPROCS 8 END

%maxcore 2000

%method
method dft
functional hyb_gga_xc_wb97x_d
end

%TDDFT
NROOTS 10
DONTO TRUE
END

* xyz 0 1
  C          -0.65259943829938     -0.22261983575645      0.00002635823652
  C           0.70499410176540      0.24887950073459      0.00042856899824
  C          -1.79340708060650      0.75989929313947     -0.00019195313255
  H          -2.43143190953461      0.60673599720014      0.88608453690581
  H          -2.43105093693668      0.60677972927235     -0.88675105816225
  H          -1.41859559091354      1.79070942637949     -0.00008000763172
  O          -0.86207551732440     -1.49133034315518      0.00009988986796
  O           1.11877795426153      1.42759405816810      0.00070532346947
  O           1.60796580263599     -0.78503326488823      0.00043479807250
  H           1.00666372552870     -1.56126958772348     -0.00007864776785
  O           3.87941091814564      1.36312596640138      0.00327397680521
  H           3.88975396791148      0.40197700291592      0.00298993622791
  H           2.90979414909711      1.52885270347277      0.00218915847136
*
