! aug-cc-pVDZ LARGEPRINT DEFGRID3 TIGHTSCF

%PAL NPROCS 8 END

%maxcore 2000

%method
method dft
functional hyb_gga_xc_wb97x_d
end

%geom
maxiter 400
end


* xyz -1 2
  C          -0.65478884843829     -0.18592099887973     -0.00284374759474
  C           0.70987780815624      0.26477331538937      0.00232644143560
  C          -1.78583761509569      0.80167188269153      0.00202639483935
  H          -2.43191009434909      0.64543996795742      0.88086080101419
  H          -2.42072879668065      0.66456086374673     -0.88807712612743
  H          -1.39858305291726      1.82697920109161      0.01524583117854
  O          -0.86995923441207     -1.46162827248999     -0.01499375504528
  O           1.12784792743095      1.43765952684186      0.01586455555795
  O           1.60578983515127     -0.77193796214617     -0.00839945603322
  H           1.01490875694229     -1.55242152482039     -0.01991453851113
  O           3.90484751901267      1.36405838362262      0.04684951288597
  H           3.92100523323195      0.40333439140649      0.03027948818218
  H           2.93741720684401      1.52956158839526      0.03621416498419
  O          -3.29742944313180     -2.61997114238164      0.29139785216110
  H          -3.21672041067775     -2.89434158701060      1.20654964402269
  H          -2.43014225789535     -2.17749042304535      0.11333731737056
*
