! aug-cc-pVDZ TightSCF DEFGRID3 Engrad ANFREQ

%PAL NPROCS 8 END

%maxcore 8000

%method
method dft
functional hyb_gga_xc_wb97x_d
end

* xyz -1 2
  C     -0.632075   -0.215377   -0.000041
  C      0.724963    0.275601   -0.000006
  C     -1.782459    0.756586   -0.000045
  H     -2.421252    0.599441    0.886501
  H     -2.421344    0.599396   -0.886518
  H     -1.415701    1.790817   -0.000074
  O     -0.837573   -1.488634    0.000082
  O      1.122316    1.451584   -0.000009
  O      1.635045   -0.757426    0.000019
  H      1.036465   -1.534650   -0.000046
*
