! aug-cc-pVDZ TightSCF DEFGRID3 Engrad ANFREQ

%PAL NPROCS 8 END

%maxcore 8000

%method
method dft
functional hyb_gga_xc_wb97x_d
end

* xyz -1 2
  C     -0.654789   -0.185921   -0.002844
  C      0.709878    0.264773    0.002326
  C     -1.785838    0.801672    0.002026
  H     -2.431910    0.645440    0.880861
  H     -2.420729    0.664561   -0.888077
  H     -1.398583    1.826979    0.015246
  O     -0.869959   -1.461628   -0.014994
  O      1.127848    1.437660    0.015865
  O      1.605790   -0.771938   -0.008399
  H      1.014909   -1.552422   -0.019915
  O      3.904848    1.364058    0.046850
  H      3.921005    0.403334    0.030279
  H      2.937417    1.529562    0.036214
  O     -3.297429   -2.619971    0.291398
  H     -3.216720   -2.894342    1.206550
  H     -2.430142   -2.177490    0.113337
* 
